language ESSENCE' 1.0
letting AssignmentMatrix be [[0, 0, 0, 1, 0, 0, 1, 0, 1, 0, 1, 0, 0, 1, 0, 1, 1, 0, 1], 
[1, 1, 1, 0, 0, 0, 1, 0, 1, 0, 0, 0, 1, 0, 0, 0, 0, 0, 0], 
[0, 0, 0, 0, 0, 0, 0, 0, 0, 0, 0, 0, 0, 0, 0, 0, 0, 0, 0], 
[0, 0, 0, 0, 1, 0, 0, 1, 0, 0, 0, 1, 0, 0, 0, 0, 0, 0, 0], 
[0, 0, 0, 0, 0, 1, 0, 0, 0, 1, 0, 0, 0, 0, 0, 0, 0, 0, 0]]
letting CPU be [2, 2, 2, 2, 4, 4, 4, 4, 4, 4, 2, 4, 4, 2, 47, 2, 2, 44, 2]
letting Memory be [3750, 3750, 3750, 3750, 7500, 7500, 15000, 7500, 15000, 7500, 3750, 7500, 7500, 3750, 488006, 3750, 3750, 488236, 3750]
letting Price be [126, 116, 116, 116, 210, 210, 350, 210, 350, 210, 116, 210, 210, 116, 0, 116, 116, 5, 116]
letting Storage be [2000, 2000, 2000, 2000, 2000, 2000, 4000, 2000, 4000, 2000, 2000, 2000, 2000, 2000, 12006, 2000, 2000, 12236, 2000]
letting VMType be [464, 433, 433, 433, 341, 341, 316, 341, 316, 341, 433, 341, 341, 433, 1, 433, 433, 1, 433]
